% demand
num_movements = 25;
loading_factor = [1250, 1650, 1850, 900, 1700, 1950, 1050, 1750, 1350, 1200, 1850, 1950, 1300, 1750, 1900, 1250, 1200, 1250, 1350, 1050, 1900, 850, 1450, 1700, 1300];
pickup_time = [0, 0, 0, 0, 0, 0, 0, 2, 2, 2, 2, 2, 3, 3, 3, 3, 4, 5, 5, 5, 5, 5, 6, 6, 6];
delivery_time = [2, 1, 3, 1, 1, 1, 3, 4, 3, 4, 4, 3, 6, 4, 4, 4, 5, 6, 6, 6, 7, 6, 7, 7, 7];

% transporter definition
total_capacity = 11000;
num_decks = 4;
capacity = [3000, 3000, 1000, 4000];

% ways out of decks
num_ways_out = 2;
paths_out = array3d(decks, ways_out, decks, [
% ways out of deck d1
2, 4, 0, 0, 3, 4, 0, 0, 

% ways out of deck d2
4, 0, 0, 0, 0, 0, 0, 0,	

% ways out of deck d3
4, 0, 0, 0, 0, 0, 0, 0,	

% ways out of deck d4
0, 0, 0, 0,	0, 0, 0, 0,	

]);

